32	0

0	1	2
9	1	3
4	1	4
9	1	5
10	1	6
4	1	7
5	2	8	9
9	1	10
8	1	10
6	1	11
1	1	12
2	1	13
2	1	14
8	1	15
9	2	16	17
9	1	19
2	1	18
7	1	19
10	1	20
4	1	21
3	2	22	24
5	2	23	25
7	1	26
8	2	25	26
6	2	27	28
3	2	27	28
10	1	29
4	1	29
5	1	30
4	1	31
5	1	32
0	0
